Version identifier: 22.1.0.0 | 2022-03-09 | 1a383f8ce
CPXPARAM_Threads                                 1
CPXPARAM_MIP_Strategy_VariableSelect             3
CPXPARAM_TimeLimit                               599.99538837199998
Tried aggregator 1 time.
MIP Presolve eliminated 13 rows and 0 columns.
MIP Presolve modified 1 coefficients.
Reduced MIP has 1218 rows, 5025 columns, and 54203 nonzeros.
Reduced MIP has 5025 binaries, 0 generals, 0 SOSs, and 0 indicators.
Presolve time = 0.04 sec. (27.24 ticks)
Probing time = 0.01 sec. (5.43 ticks)
Tried aggregator 1 time.
Detecting symmetries...
Reduced MIP has 1218 rows, 5025 columns, and 54203 nonzeros.
Reduced MIP has 5025 binaries, 0 generals, 0 SOSs, and 0 indicators.
Presolve time = 0.04 sec. (33.12 ticks)
Probing time = 0.01 sec. (5.43 ticks)
Clique table members: 800.
MIP emphasis: balance optimality and feasibility.
MIP search method: dynamic search.
Parallel mode: none, using 1 thread.
Root relaxation solution time = 0.20 sec. (178.47 ticks)

        Nodes                                         Cuts/
   Node  Left     Objective  IInf  Best Integer    Best Bound    ItCnt     Gap

      0     0        0.0000   691                      0.0000     1478         
*     0+    0                            0.0000        0.0000             0.00%
      0     0        cutoff              0.0000        0.0000     1478    0.00%
Elapsed time = 0.83 sec. (641.03 ticks, tree = 0.01 MB, solutions = 1)

Root node processing (before b&c):
  Real time             =    0.83 sec. (641.18 ticks)
Sequential b&c:
  Real time             =    0.00 sec. (0.00 ticks)
                          ------------
Total (root+branch&cut) =    0.83 sec. (641.18 ticks)
Version identifier: 22.1.0.0 | 2022-03-09 | 1a383f8ce
CPXPARAM_Threads                                 1
CPXPARAM_MIP_Strategy_VariableSelect             3
CPXPARAM_TimeLimit                               599.12798729500003
Tried aggregator 1 time.
MIP Presolve eliminated 13 rows and 0 columns.
MIP Presolve modified 1 coefficients.
Reduced MIP has 1818 rows, 7525 columns, and 81503 nonzeros.
Reduced MIP has 7525 binaries, 0 generals, 0 SOSs, and 0 indicators.
Presolve time = 0.05 sec. (40.52 ticks)
Probing time = 0.01 sec. (6.69 ticks)
Tried aggregator 1 time.
Detecting symmetries...
Reduced MIP has 1818 rows, 7525 columns, and 81503 nonzeros.
Reduced MIP has 7525 binaries, 0 generals, 0 SOSs, and 0 indicators.
Presolve time = 0.06 sec. (49.58 ticks)
Probing time = 0.01 sec. (6.69 ticks)
Clique table members: 1200.
MIP emphasis: balance optimality and feasibility.
MIP search method: dynamic search.
Parallel mode: none, using 1 thread.
Root relaxation solution time = 0.52 sec. (501.67 ticks)

        Nodes                                         Cuts/
   Node  Left     Objective  IInf  Best Integer    Best Bound    ItCnt     Gap

      0     0        0.0000  1037                      0.0000     2519         
*     0+    0                            0.0000        0.0000             0.00%
      0     0        cutoff              0.0000        0.0000     2519    0.00%
Elapsed time = 1.95 sec. (1719.96 ticks, tree = 0.01 MB, solutions = 1)

Root node processing (before b&c):
  Real time             =    1.95 sec. (1720.18 ticks)
Sequential b&c:
  Real time             =    0.00 sec. (0.00 ticks)
                          ------------
Total (root+branch&cut) =    1.95 sec. (1720.18 ticks)
Version identifier: 22.1.0.0 | 2022-03-09 | 1a383f8ce
CPXPARAM_Threads                                 1
CPXPARAM_MIP_Strategy_VariableSelect             3
CPXPARAM_TimeLimit                               597.12691975600001
Tried aggregator 1 time.
MIP Presolve eliminated 13 rows and 0 columns.
MIP Presolve modified 1 coefficients.
Reduced MIP has 2118 rows, 8775 columns, and 95153 nonzeros.
Reduced MIP has 8775 binaries, 0 generals, 0 SOSs, and 0 indicators.
Presolve time = 0.06 sec. (47.16 ticks)
Probing time = 0.01 sec. (7.32 ticks)
Tried aggregator 1 time.
Detecting symmetries...
Reduced MIP has 2118 rows, 8775 columns, and 95153 nonzeros.
Reduced MIP has 8775 binaries, 0 generals, 0 SOSs, and 0 indicators.
Presolve time = 0.07 sec. (57.80 ticks)
Probing time = 0.01 sec. (7.32 ticks)
Clique table members: 1400.
MIP emphasis: balance optimality and feasibility.
MIP search method: dynamic search.
Parallel mode: none, using 1 thread.
Root relaxation solution time = 0.90 sec. (878.78 ticks)

        Nodes                                         Cuts/
   Node  Left     Objective  IInf  Best Integer    Best Bound    ItCnt     Gap

      0     0        0.0000  1198                      0.0000     3491         
*     0+    0                            0.0000        0.0000             0.00%
      0     0        cutoff              0.0000        0.0000     3491    0.00%
Elapsed time = 4.46 sec. (4408.32 ticks, tree = 0.01 MB, solutions = 1)

Root node processing (before b&c):
  Real time             =    4.46 sec. (4408.58 ticks)
Sequential b&c:
  Real time             =    0.00 sec. (0.00 ticks)
                          ------------
Total (root+branch&cut) =    4.46 sec. (4408.58 ticks)
Version identifier: 22.1.0.0 | 2022-03-09 | 1a383f8ce
CPXPARAM_Threads                                 1
CPXPARAM_MIP_Strategy_VariableSelect             3
CPXPARAM_TimeLimit                               592.60873769800003
Tried aggregator 1 time.
MIP Presolve eliminated 13 rows and 0 columns.
Reduced MIP has 2268 rows, 9400 columns, and 101978 nonzeros.
Reduced MIP has 9400 binaries, 0 generals, 0 SOSs, and 0 indicators.
Presolve time = 0.07 sec. (50.43 ticks)
Probing time = 0.01 sec. (7.65 ticks)
Tried aggregator 1 time.
Detecting symmetries...
Reduced MIP has 2268 rows, 9400 columns, and 101978 nonzeros.
Reduced MIP has 9400 binaries, 0 generals, 0 SOSs, and 0 indicators.
Presolve time = 0.08 sec. (61.95 ticks)
Probing time = 0.01 sec. (7.65 ticks)
Clique table members: 1500.
MIP emphasis: balance optimality and feasibility.
MIP search method: dynamic search.
Parallel mode: none, using 1 thread.
Root relaxation solution time = 1.79 sec. (1838.29 ticks)

        Nodes                                         Cuts/
   Node  Left     Objective  IInf  Best Integer    Best Bound    ItCnt     Gap

      0     0        0.0000  1498                      0.0000     5461         
*     0+    0                            0.0000        0.0000             0.00%
      0     0        cutoff              0.0000        0.0000     5461    0.00%
Elapsed time = 8.78 sec. (8837.70 ticks, tree = 0.01 MB, solutions = 1)

Root node processing (before b&c):
  Real time             =    8.79 sec. (8837.98 ticks)
Sequential b&c:
  Real time             =    0.00 sec. (0.00 ticks)
                          ------------
Total (root+branch&cut) =    8.79 sec. (8837.98 ticks)
Version identifier: 22.1.0.0 | 2022-03-09 | 1a383f8ce
CPXPARAM_Threads                                 1
CPXPARAM_MIP_Strategy_VariableSelect             3
CPXPARAM_TimeLimit                               583.76287467899999
Tried aggregator 1 time.
MIP Presolve eliminated 13 rows and 0 columns.
Reduced MIP has 2340 rows, 9700 columns, and 105254 nonzeros.
Reduced MIP has 9700 binaries, 0 generals, 0 SOSs, and 0 indicators.
Presolve time = 0.07 sec. (52.04 ticks)
Probing time = 0.01 sec. (7.77 ticks)
Tried aggregator 1 time.
Detecting symmetries...
Reduced MIP has 2340 rows, 9700 columns, and 105254 nonzeros.
Reduced MIP has 9700 binaries, 0 generals, 0 SOSs, and 0 indicators.
Presolve time = 0.08 sec. (63.93 ticks)
Probing time = 0.01 sec. (7.77 ticks)
Clique table members: 1548.
MIP emphasis: balance optimality and feasibility.
MIP search method: dynamic search.
Parallel mode: none, using 1 thread.
Root relaxation solution time = 1.79 sec. (1793.87 ticks)

        Nodes                                         Cuts/
   Node  Left     Objective  IInf  Best Integer    Best Bound    ItCnt     Gap

      0     0        0.0000  1500                      0.0000     5654         
*     0+    0                            0.0000        0.0000             0.00%
      0     0        cutoff              0.0000        0.0000     5654    0.00%
Elapsed time = 12.33 sec. (12653.53 ticks, tree = 0.01 MB, solutions = 1)

Root node processing (before b&c):
  Real time             =   12.33 sec. (12653.82 ticks)
Sequential b&c:
  Real time             =    0.00 sec. (0.00 ticks)
                          ------------
Total (root+branch&cut) =   12.33 sec. (12653.82 ticks)
Version identifier: 22.1.0.0 | 2022-03-09 | 1a383f8ce
CPXPARAM_Threads                                 1
CPXPARAM_MIP_Strategy_VariableSelect             3
CPXPARAM_TimeLimit                               571.36817649199998
Tried aggregator 1 time.
MIP Presolve eliminated 13 rows and 0 columns.
Reduced MIP has 2376 rows, 9850 columns, and 106892 nonzeros.
Reduced MIP has 9850 binaries, 0 generals, 0 SOSs, and 0 indicators.
Presolve time = 0.07 sec. (52.83 ticks)
Probing time = 0.01 sec. (7.86 ticks)
Tried aggregator 1 time.
Detecting symmetries...
Reduced MIP has 2376 rows, 9850 columns, and 106892 nonzeros.
Reduced MIP has 9850 binaries, 0 generals, 0 SOSs, and 0 indicators.
Presolve time = 0.08 sec. (64.91 ticks)
Probing time = 0.01 sec. (7.86 ticks)
Clique table members: 1572.
MIP emphasis: balance optimality and feasibility.
MIP search method: dynamic search.
Parallel mode: none, using 1 thread.
Root relaxation solution time = 1.85 sec. (1882.02 ticks)

        Nodes                                         Cuts/
   Node  Left     Objective  IInf  Best Integer    Best Bound    ItCnt     Gap

      0     0        0.0000  1468                      0.0000     5717         
      0     0        0.0000   153                  Cliques: 1     5723         
      0     0        0.0000   212                    Cuts: 62     7977         
      0     2        0.0000     8                      0.0000     7977         
Elapsed time = 55.94 sec. (58889.09 ticks, tree = 0.01 MB, solutions = 0)
      1     3        0.0000    67                      0.0000    23049         
      2     4        0.0000   427                      0.0000    28190         
      3     5        0.0000   478                      0.0000    33241         
      4     6        0.0000    62                      0.0000    33689         
      5     7        0.0000   194                      0.0000    39166         
      6     8        0.0000    28                      0.0000    41280         
      7     9        0.0000   103                      0.0000    44682         
      8    10        0.0000    71                      0.0000    46574         
      9    11        0.0000    67                      0.0000    48795         
     10    12        0.0000   100                      0.0000    51346         
Elapsed time = 79.07 sec. (82357.61 ticks, tree = 0.13 MB, solutions = 0)
     12    14        0.0000   201                      0.0000    53599         
     13    15        0.0000   322                      0.0000    55615         
     14    16        0.0000   252                      0.0000    60515         
     15    17        0.0000   204                      0.0000    61867         
     16    18        0.0000   513                      0.0000    64359         
     18    20        0.0000   294                      0.0000    66175         
     20    22        0.0000   199                      0.0000    69504         
     21    23        0.0000   242                      0.0000    74102         
     23    25        0.0000   182                      0.0000    75692         
     25    27        0.0000   181                      0.0000    77435         
Elapsed time = 96.46 sec. (99556.66 ticks, tree = 0.44 MB, solutions = 0)
     28    30        0.0000   209                      0.0000    80962         
     30    32        0.0000   197                      0.0000    82823         
     32    34        0.0000   224                      0.0000    85633         
     34    36        0.0000   165                      0.0000    87532         
     37    39        0.0000   178                      0.0000    91286         
     40    42        0.0000   170                      0.0000    93252         
     42    44        0.0000   159                      0.0000    96857         
     44    46        0.0000   265                      0.0000   103467         
     45    47        0.0000   166                      0.0000   104636         
     46    48        0.0000   269                      0.0000   109975         
Elapsed time = 118.58 sec. (121040.39 ticks, tree = 0.89 MB, solutions = 0)
     48    50        0.0000   845                      0.0000   113639         
     49    51        0.0000   220                      0.0000   123383         
     50    52        0.0000   412                      0.0000   128578         
     52    54        0.0000   397                      0.0000   130526         
     54    56        0.0000   373                      0.0000   132896         
     56    58        0.0000   385                      0.0000   135125         
     58    60        0.0000   180                      0.0000   135795         
     60    62        0.0000   191                      0.0000   137849         
     61    63        0.0000   257                      0.0000   140977         
     63    65        0.0000   351                      0.0000   143507         
Elapsed time = 140.42 sec. (142180.39 ticks, tree = 1.23 MB, solutions = 0)
     65    67        0.0000   260                      0.0000   147644         
     67    69        0.0000   183                      0.0000   151885         
     68    70        0.0000   197                      0.0000   155077         
     70    72        0.0000   244                      0.0000   159606         
     72    74        0.0000   244                      0.0000   161156         
     73    75        0.0000   295                      0.0000   163202         
     75    77        0.0000   214                      0.0000   166090         
     77    79        0.0000   250                      0.0000   168832         
     79    81        0.0000   188                      0.0000   172881         
     80    82        0.0000   187                      0.0000   174204         
Elapsed time = 159.95 sec. (161362.49 ticks, tree = 1.58 MB, solutions = 0)
     82    84        0.0000   228                      0.0000   177946         
     84    86        0.0000   183                      0.0000   179219         
     86    88        0.0000   164                      0.0000   180139         
     87    89        0.0000   158                      0.0000   181808         
     89    91        0.0000   170                      0.0000   183387         
     92    94        0.0000   196                      0.0000   184462         
     94    96        0.0000   157                      0.0000   187522         
     96    98        0.0000   152                      0.0000   189475         
     97    98        0.0000   424                      0.0000   192629         
     99   100        0.0000   327                      0.0000   194258         
Elapsed time = 174.92 sec. (175768.43 ticks, tree = 1.96 MB, solutions = 0)
    101   102        0.0000   418                      0.0000   197177         
    103   104        0.0000   314                      0.0000   200855         
    107   108        0.0000   212                      0.0000   200943         
    109   110        0.0000   232                      0.0000   203565         
    111   112        0.0000   439                      0.0000   205075         
    113   114        0.0000   156                      0.0000   207605         
    114   115        0.0000   192                      0.0000   211081         
    116   117        0.0000   396                      0.0000   212414         
    118   119        0.0000   184                      0.0000   214122         
    120   121        0.0000   435                      0.0000   215177         
Elapsed time = 189.73 sec. (189787.22 ticks, tree = 2.45 MB, solutions = 0)
    122   123        0.0000   329                      0.0000   217692         
    124   125        0.0000   309                      0.0000   219113         
    126   127        0.0000   282                      0.0000   220685         
    128   129        0.0000   259                      0.0000   222276         
    130   131        0.0000   261                      0.0000   224030         
    133   134        0.0000   376                      0.0000   227045         
    135   136        0.0000   336                      0.0000   228556         
    138   139        0.0000   319                      0.0000   228773         
    140   141        0.0000   416                      0.0000   232498         
    143   144        0.0000   260                      0.0000   233779         
Elapsed time = 204.39 sec. (203598.75 ticks, tree = 2.97 MB, solutions = 0)
    145   146        0.0000   269                      0.0000   235367         
    146   147        0.0000   450                      0.0000   239892         
    148   149        0.0000   385                      0.0000   242522         
    150   151        0.0000   257                      0.0000   243659         
    152   153        0.0000   254                      0.0000   245532         
    154   155        0.0000   393                      0.0000   249112         
    156   157        0.0000   237                      0.0000   251011         
    158   159        0.0000   343                      0.0000   253967         
    160   161        0.0000   273                      0.0000   255615         
    162   163        0.0000   361                      0.0000   259276         
Elapsed time = 218.68 sec. (216858.96 ticks, tree = 3.37 MB, solutions = 0)
    164   165        0.0000   355                      0.0000   263340         
    166   167        0.0000   368                      0.0000   266631         
    168   169        0.0000   330                      0.0000   269228         
    170   170        0.0000   336                      0.0000   272147         
    172   172        0.0000   280                      0.0000   275290         
    174   174        0.0000   318                      0.0000   277855         
    176   176        0.0000   300                      0.0000   281007         
    178   178        0.0000   318                      0.0000   283290         
    180   180        0.0000   351                      0.0000   286307         
    187   186        0.0000   400                      0.0000   295636         
Elapsed time = 236.64 sec. (233338.68 ticks, tree = 3.89 MB, solutions = 0)
    195   194        0.0000   211                      0.0000   303079         
    205   204        0.0000   200                      0.0000   307853         
    211   209        0.0000   325                      0.0000   318948         
    216   214        0.0000   325                      0.0000   329144         
    220   218        0.0000   243                      0.0000   333845         
    224   222        0.0000   299                      0.0000   344662         
    229   227        0.0000   225                      0.0000   357641         
    234   232        0.0000   286                      0.0000   368540         
    239   237        0.0000   235                      0.0000   378718         
    245   243        0.0000   337                      0.0000   386909         
Elapsed time = 286.04 sec. (277950.18 ticks, tree = 4.75 MB, solutions = 0)
    253   251        0.0000   241                      0.0000   395957         
    260   254    infeasible                            0.0000   409221         
    268   256        0.0000   251                      0.0000   421965         
    275   259    infeasible                            0.0000   434457         
    283   263        0.0000   138                      0.0000   446772         
    292   266    infeasible                            0.0000   459887         
    302   274        0.0000   194                      0.0000   468828         
    310   280        0.0000   177                      0.0000   478922         
    318   286        0.0000   189                      0.0000   490905         
    327   293        0.0000   190                      0.0000   501813         
Elapsed time = 334.08 sec. (320020.02 ticks, tree = 5.88 MB, solutions = 0)
    339   303        0.0000   115                      0.0000   509855         
    353   307        0.0000   124                      0.0000   521881         
    368   312        0.0000   128                      0.0000   533507         
    383   317        0.0000   202                      0.0000   543937         
    386   320        0.0000   323                      0.0000   551301         
    391   325        0.0000   208                      0.0000   558973         
    396   330        0.0000   198                      0.0000   566090         
    400   334        0.0000   164                      0.0000   572554         
    404   338        0.0000   262                      0.0000   579947         
    408   342        0.0000   317                      0.0000   585736         
Elapsed time = 381.92 sec. (364402.14 ticks, tree = 6.97 MB, solutions = 0)
    412   346        0.0000   276                      0.0000   592245         
    417   351        0.0000   180                      0.0000   600441         
    422   356        0.0000   174                      0.0000   612728         
    425   359        0.0000   273                      0.0000   622199         
    428   362        0.0000   196                      0.0000   628915         
    432   366        0.0000   188                      0.0000   634097         
    437   371        0.0000   328                      0.0000   640530         
    442   376        0.0000   234                      0.0000   646424         
    447   380        0.0000   237                      0.0000   654455         
    451   384        0.0000   188                      0.0000   661361         
Elapsed time = 429.03 sec. (410539.49 ticks, tree = 7.84 MB, solutions = 0)
    457   390        0.0000   278                      0.0000   668263         
    462   394        0.0000   303                      0.0000   674291         
    467   399        0.0000   246                      0.0000   679662         

Performing restart 1

Repeating presolve.
Tried aggregator 1 time.
Reduced MIP has 2376 rows, 9850 columns, and 106892 nonzeros.
Reduced MIP has 9850 binaries, 0 generals, 0 SOSs, and 0 indicators.
Presolve time = 0.07 sec. (52.15 ticks)
Tried aggregator 1 time.
Reduced MIP has 2376 rows, 9850 columns, and 106892 nonzeros.
Reduced MIP has 9850 binaries, 0 generals, 0 SOSs, and 0 indicators.
Presolve time = 0.08 sec. (66.80 ticks)
Represolve time = 0.71 sec. (393.94 ticks)
*   470+    0                            0.0000        0.0000             0.00%
    470     0        cutoff              0.0000        0.0000   686642    0.00%

Root node processing (before b&c):
  Real time             =   55.76 sec. (58758.22 ticks)
Sequential b&c:
  Real time             =  405.66 sec. (383504.60 ticks)
                          ------------
Total (root+branch&cut) =  461.43 sec. (442262.82 ticks)
Version identifier: 22.1.0.0 | 2022-03-09 | 1a383f8ce
CPXPARAM_Threads                                 1
CPXPARAM_MIP_Strategy_VariableSelect             3
CPXPARAM_TimeLimit                               109.87468598799995
Tried aggregator 1 time.
MIP Presolve eliminated 13 rows and 0 columns.
Reduced MIP has 2394 rows, 9925 columns, and 107711 nonzeros.
Reduced MIP has 9925 binaries, 0 generals, 0 SOSs, and 0 indicators.
Presolve time = 0.07 sec. (53.22 ticks)
Probing time = 0.01 sec. (7.91 ticks)
Tried aggregator 1 time.
Detecting symmetries...
Reduced MIP has 2394 rows, 9925 columns, and 107711 nonzeros.
Reduced MIP has 9925 binaries, 0 generals, 0 SOSs, and 0 indicators.
Presolve time = 0.08 sec. (65.39 ticks)
Probing time = 0.01 sec. (7.91 ticks)
Clique table members: 1584.
MIP emphasis: balance optimality and feasibility.
MIP search method: dynamic search.
Parallel mode: none, using 1 thread.
Root relaxation solution time = 1.64 sec. (1662.60 ticks)

        Nodes                                         Cuts/
   Node  Left     Objective  IInf  Best Integer    Best Bound    ItCnt     Gap

      0     0        0.0000  1548                      0.0000     5131         
      0     2        0.0000   107                      0.0000     5131         
Elapsed time = 18.36 sec. (18223.63 ticks, tree = 0.01 MB, solutions = 0)
      1     3        0.0000   117                      0.0000    20736         
      2     4        0.0000   235                      0.0000    25303         
      3     5        0.0000   232                      0.0000    30179         
      4     6        0.0000   348                      0.0000    30809         
      5     7        0.0000   235                      0.0000    31368         
      6     8        0.0000   353                      0.0000    34023         
      7     9        0.0000   187                      0.0000    36462         
      8    10        0.0000   219                      0.0000    38383         
      9    11        0.0000   225                      0.0000    39624         
     11    13        0.0000   235                      0.0000    41583         
Elapsed time = 35.96 sec. (36250.44 ticks, tree = 0.21 MB, solutions = 0)
     13    15        0.0000   233                      0.0000    45363         
     15    17        0.0000   241                      0.0000    48940         
     18    20        0.0000   244                      0.0000    50560         
     19    21        0.0000   227                      0.0000    58212         
     20    22        0.0000   212                      0.0000    58974         
     21    23        0.0000   426                      0.0000    62139         
     23    25        0.0000   273                      0.0000    64516         
     25    27        0.0000   325                      0.0000    70420         
     27    29        0.0000   280                      0.0000    74851         
     29    31        0.0000   508                      0.0000    76451         
Elapsed time = 52.28 sec. (51859.13 ticks, tree = 0.55 MB, solutions = 0)
     30    32        0.0000   280                      0.0000    76844         
     32    34        0.0000   235                      0.0000    80773         
     34    36        0.0000   342                      0.0000    88425         
     36    38        0.0000   269                      0.0000    93833         
     38    40        0.0000   250                      0.0000    95250         
     39    41        0.0000   235                      0.0000    99500         
     40    42        0.0000   222                      0.0000   100106         
     41    43        0.0000   438                      0.0000   103573         
     44    45        0.0000   532                      0.0000   109307         
     46    47        0.0000   566                      0.0000   115264         
Elapsed time = 67.98 sec. (66433.80 ticks, tree = 0.87 MB, solutions = 0)
     49    50        0.0000   651                      0.0000   119989         
     52    53        0.0000   537                      0.0000   121713         
     55    56        0.0000   612                      0.0000   126239         
     58    59        0.0000   567                      0.0000   127967         
     60    61        0.0000   564                      0.0000   129474         
     63    64        0.0000   559                      0.0000   131824         
     66    67        0.0000   542                      0.0000   136758         
     69    70        0.0000   745                      0.0000   142923         
     72    73        0.0000   545                      0.0000   144385         
     75    76        0.0000   588                      0.0000   147723         
Elapsed time = 81.72 sec. (78934.71 ticks, tree = 1.52 MB, solutions = 0)
     78    79        0.0000   553                      0.0000   150476         
     81    82        0.0000   544                      0.0000   154032         
     84    85        0.0000   540                      0.0000   156092         
     87    88        0.0000   557                      0.0000   160281         
     90    91        0.0000   559                      0.0000   163669         
     94    95        0.0000   689                      0.0000   167953         
     98    99        0.0000   578                      0.0000   170129         
    101   102        0.0000   541                      0.0000   172912         
    104   105        0.0000   568                      0.0000   177900         
    106   107        0.0000   910                      0.0000   182154         
Elapsed time = 93.90 sec. (90008.26 ticks, tree = 2.22 MB, solutions = 0)
    110   111        0.0000   638                      0.0000   184972         
    113   114        0.0000   768                      0.0000   187896         
    116   117        0.0000   548                      0.0000   190889         
    119   120        0.0000   775                      0.0000   199458         
    120   121        0.0000   549                      0.0000   199647         
    123   124        0.0000   740                      0.0000   205792         
    127   128        0.0000   696                      0.0000   210387         
    131   132        0.0000   737                      0.0000   214655         

Root node processing (before b&c):
  Real time             =   18.24 sec. (18140.02 ticks)
Sequential b&c:
  Real time             =   91.64 sec. (86178.31 ticks)
                          ------------
Total (root+branch&cut) =  109.88 sec. (104318.33 ticks)
Primal:	394
Dual:	396
Status:	Optimal
Time:	600.054
Sequence:
	23
	1
	21
	9
	12
	5
	22
	3
	20
	5
	16
	7
	5
	16
	5
	22
	1
	20
	9
	12
	6
	18
	7
	12
	9
	5
	15
	11
	12
	5
	23
	1
	21
	9
	12
	6
	23
	1
	21
	9
	12
	5
	21
	2
	21
	5
	12
	11
	20
	0
	23
	7
	14
	9
	13
	5
	18
	7
	12
	10
	20
	1
	20
	11
	13
	5
	9
	12
	7
	19
	5
	12
	9
	21
	1
	20
	6
	16
	7
	20
	1
	10
	12
	7
	23
	1
	20
	9
	15
	5
	16
	7
	12
	9
	21
	0
	21
	9
	12
	7
	16
	6
	20
	1
	21
	9
	13
	5
	12
	11
	21
	0
	23
	5
	14
	5
	21
	2
	20
	7
	16
	7
	20
	2
	21
	5
	18
	5
	20
	4
	20
	5
	12
	11
	5
	12
	9
	21
	1
	23
	6
	12
	11
	20
	1
	23
	6
	14
	5
	23
	1
	20
	8
	16
	5
	20
	3
	21
	5
	16
	6
	21
	1
	23
	5
	12
	7
	7
	16
	5
	20
	3
	20
	5
	16
	5
	20
	0
	23
	7
	14
	9
	20
	0
	11
	14
	5
	23
	0
	21
	9
	12
	7
	9
	12
	5
	21
	1
	23
	5
	12
	9
	21
	0
	21
	9
	12
	5
	18
	5
	21
	0
	23
	5
	14
	11
	20
	0
	20
	11
	14
	5
	9
	13
	7
	18
	5
	20
	2
	21
	7
	16
	5
	12
	11
	13
	7
	16
	5
	12
	9
	21
	1
	20
	10
	12
	7
	18
	5
	20
	0
	21
	5
	16
	7
	5
	12
	11
	6
	14
	9
	20
	1
	12
	7
	23
	0
	21
	9
	12
	7
	9
	12
	7
	5
	16
	7
	12
	11
	13
	5
	16
	7
	20
	3
	20
	5
	16
	7
	20
	3
	5
	20
	1
	23
	7
	13
	9
	14
	5
	23
	1
	20
	8
	16
	5
	20
	3
	22
	5
	16
	5
	21
	1
	23
	5
	13
	11
	20
	1
	20
	9
	14
	5
	20
	3
	20
	7
	16
	6
	7
	12
	9
	21
	0
	21
	9
	12
	7
	17
	5
	20
	1
	21
	9
	13
	5
	16
	7
	5
	18
	6
	20
	3
	20
	5
	13
	11
	20
	1
	20
	5
	18
	5
	6
	18
	5
	14
	9
	20
	1
	23
	7
	12
	9
	14
	5
	18
	6
	20
	1
	23
	7
	13
	9
	20
	1
	23
	8
	12
	5
	23
	1
	22
